p cnf 499 1093
-1 48 0
1 -48 0
-2 49 0
2 -49 0
-3 50 0
3 -50 0
-4 51 0
4 -51 0
-5 52 0
5 -52 0
-6 53 0
6 -53 0
-7 54 0
7 -54 0
-55 56 0
55 -56 0
-57 58 0
57 -58 0
-8 59 0
8 -59 0
-60 61 0
60 -61 0
-9 62 0
9 -62 0
-63 64 0
63 -64 0
-10 65 0
10 -65 0
-66 67 0
66 -67 0
-11 68 0
11 -68 0
-69 70 0
69 -70 0
-12 71 0
12 -71 0
-72 73 0
72 -73 0
-13 74 0
13 -74 0
-75 76 0
75 -76 0
-53 77 0
53 -77 0
-78 79 0
78 -79 0
-80 81 0
80 -81 0
-82 83 0
82 -83 0
-84 85 0
84 -85 0
-14 86 0
14 -86 0
-87 88 0
87 -88 0
-15 89 0
15 -89 0
-90 91 0
90 -91 0
-16 92 0
16 -92 0
-93 94 0
93 -94 0
-17 95 0
17 -95 0
-96 97 0
96 -97 0
-18 98 0
18 -98 0
-99 100 0
99 -100 0
-19 101 0
19 -101 0
-20 102 0
20 -102 0
-21 103 0
21 -103 0
-22 104 0
22 -104 0
-23 105 0
23 -105 0
-24 106 0
24 -106 0
-25 107 0
25 -107 0
-26 108 0
26 -108 0
-27 109 0
27 -109 0
-28 110 0
28 -110 0
-111 -112 113 0
111 -113 0
112 -113 0
-114 -115 116 0
114 -116 0
115 -116 0
-59 -68 319 0
-319 -117 118 0
68 -118 0
117 -118 0
59 -118 0
-59 -119 320 0
-320 -120 121 0
119 -121 0
120 -121 0
59 -121 0
-93 122 321 0
-321 123 322 0
-322 124 323 0
-323 125 324 0
-324 126 325 0
-325 127 128 0
93 -122 0
93 -123 0
93 -124 0
93 -125 0
93 -126 0
93 -127 0
93 -128 0
-51 -129 326 0
-326 -130 131 0
51 -131 0
129 -131 0
130 -131 0
-132 -133 327 0
-327 -134 135 0
132 -135 0
133 -135 0
134 -135 0
-53 -136 137 0
53 -137 0
136 -137 0
-82 138 328 0
-328 139 329 0
-329 140 330 0
-330 141 331 0
-331 142 332 0
-332 143 144 0
82 -138 0
82 -139 0
82 -140 0
82 -141 0
82 -142 0
82 -143 0
82 -144 0
-117 -132 145 0
117 -145 0
132 -145 0
-52 -119 333 0
-333 -120 146 0
119 -146 0
120 -146 0
52 -146 0
-147 -148 334 0
-334 -149 150 0
147 -150 0
148 -150 0
149 -150 0
-51 -129 335 0
-335 -151 152 0
51 -152 0
129 -152 0
151 -152 0
-54 -132 336 0
-336 -153 154 0
132 -154 0
54 -154 0
153 -154 0
-112 -136 155 0
112 -155 0
136 -155 0
-111 -156 157 0
111 -157 0
156 -157 0
-52 -59 337 0
-337 -104 338 0
-338 -133 158 0
59 -158 0
52 -158 0
133 -158 0
104 -158 0
-119 -120 339 0
-339 -159 160 0
119 -160 0
120 -160 0
159 -160 0
-49 -52 340 0
-340 124 -161 0
49 -124 0
-124 161 0
52 -124 0
-129 -132 162 0
129 -162 0
132 -162 0
135 154 341 0
-341 163 -164 0
-135 164 0
-163 164 0
-154 164 0
-55 113 342 0
-342 137 155 0
55 -137 0
55 -113 0
55 -155 0
-75 165 343 0
-343 166 167 0
75 -165 0
75 -166 0
75 -167 0
-54 -86 344 0
-344 -132 168 0
54 -168 0
86 -168 0
132 -168 0
-90 150 345 0
-345 169 346 0
-346 170 347 0
-347 171 348 0
-348 172 349 0
-349 173 174 0
90 -169 0
90 -170 0
90 -171 0
90 -172 0
90 -173 0
90 -174 0
90 -150 0
126 -132 -161 0
-126 161 0
-126 132 0
-51 -52 350 0
-350 -129 175 0
51 -175 0
129 -175 0
52 -175 0
52 59 -176 0
-52 176 0
-59 176 0
-111 -177 178 0
111 -178 0
177 -178 0
-53 -179 180 0
53 -180 0
179 -180 0
-132 -148 173 0
148 -173 0
132 -173 0
-49 122 351 0
-351 -161 -181 0
49 -122 0
-122 161 0
-122 181 0
-129 -151 352 0
-352 -182 183 0
182 -183 0
129 -183 0
151 -183 0
184 185 353 0
-353 186 -187 0
-184 187 0
-185 187 0
-186 187 0
-188 -189 0
188 189 0
-53 -134 190 0
53 -190 0
134 -190 0
-60 191 354 0
-354 192 193 0
60 -191 0
60 -192 0
60 -193 0
-179 -194 195 0
194 -195 0
179 -195 0
-52 -74 355 0
-355 -148 171 0
74 -171 0
148 -171 0
52 -171 0
-49 125 356 0
-356 -161 -196 0
49 -125 0
-125 161 0
-125 196 0
-99 197 198 0
99 -197 0
99 -198 0
52 59 357 0
-357 62 -199 0
-59 199 0
-52 199 0
-62 199 0
-134 -177 200 0
177 -200 0
134 -200 0
-74 -148 358 0
-358 172 -201 0
74 -172 0
148 -172 0
-172 201 0
127 -161 359 0
-359 -196 -202 0
-127 202 0
-127 161 0
-127 196 0
-52 -129 360 0
-360 -182 203 0
182 -203 0
129 -203 0
52 -203 0
-65 -177 204 0
177 -204 0
65 -204 0
-57 178 361 0
-361 190 200 0
57 -190 0
57 -178 0
57 -200 0
-74 -148 362 0
-362 -149 169 0
74 -169 0
148 -169 0
149 -169 0
-52 123 363 0
-363 -161 -202 0
-123 202 0
-123 161 0
52 -123 0
-129 -130 364 0
-364 -182 205 0
182 -205 0
129 -205 0
130 -205 0
-50 -62 365 0
-365 -112 366 0
-366 163 -206 0
62 -163 0
-163 206 0
112 -163 0
50 -163 0
-111 192 -207 0
111 -192 0
-192 207 0
-53 -208 209 0
53 -209 0
208 -209 0
-104 -132 367 0
-367 -133 210 0
132 -210 0
133 -210 0
104 -210 0
-80 116 368 0
-368 211 212 0
80 -211 0
80 -116 0
80 -212 0
144 -213 369 0
-369 -214 -215 0
-144 213 0
-144 214 0
-144 215 0
-59 -71 370 0
-370 -120 216 0
71 -216 0
120 -216 0
59 -216 0
-187 -214 0
187 214 0
-63 217 371 0
-371 218 219 0
63 -217 0
63 -218 0
63 -219 0
-208 -220 221 0
220 -221 0
208 -221 0
-50 -52 372 0
-372 -59 222 0
52 -222 0
59 -222 0
50 -222 0
-54 -86 373 0
-373 -112 374 0
-374 -206 223 0
86 -223 0
54 -223 0
112 -223 0
206 -223 0
-84 118 375 0
-375 145 376 0
-376 224 377 0
-377 225 378 0
-378 226 379 0
-379 227 228 0
84 -224 0
84 -225 0
84 -118 0
84 -226 0
84 -145 0
84 -227 0
84 -228 0
-120 -132 229 0
120 -229 0
132 -229 0
-199 -213 0
199 213 0
193 -207 -230 0
-193 207 0
-193 230 0
-69 209 380 0
-380 221 231 0
69 -209 0
69 -231 0
69 -221 0
-50 -112 381 0
-381 -206 232 0
206 -232 0
112 -232 0
50 -232 0
-114 -132 211 0
114 -211 0
132 -211 0
-59 139 382 0
-382 -213 -214 0
-139 213 0
-139 214 0
59 -139 0
-87 121 383 0
-383 146 384 0
-384 160 385 0
-385 216 386 0
-386 229 387 0
-387 233 234 0
87 -233 0
87 -121 0
87 -216 0
87 -234 0
87 -229 0
87 -146 0
87 -160 0
-204 -215 0
204 215 0
-53 191 -230 0
53 -191 0
-191 230 0
-111 -194 235 0
111 -235 0
194 -235 0
-86 -104 388 0
-388 -132 236 0
132 -236 0
86 -236 0
104 -236 0
-62 -114 212 0
114 -212 0
62 -212 0
-52 143 389 0
-389 -213 -214 0
-143 213 0
-143 214 0
52 -143 0
-117 -189 390 0
-390 228 -237 0
189 -228 0
117 -228 0
-228 237 0
-117 -238 0
117 238 0
-111 218 -239 0
111 -218 0
-218 239 0
-53 -240 241 0
53 -241 0
240 -241 0
167 -242 -243 0
-167 242 0
-167 243 0
-52 -59 391 0
-391 -86 392 0
-392 -104 244 0
86 -244 0
52 -244 0
59 -244 0
104 -244 0
-52 -65 393 0
-393 141 -214 0
65 -141 0
-141 214 0
52 -141 0
-52 -117 394 0
-394 -189 227 0
189 -227 0
117 -227 0
52 -227 0
128 -161 395 0
-395 -181 -202 0
-128 202 0
-128 161 0
-128 181 0
-50 197 396 0
-396 -206 397 0
-397 -245 -246 0
-197 245 0
-197 206 0
-197 246 0
50 -197 0
-53 -111 0
53 111 0
-66 180 398 0
-398 195 235 0
66 -180 0
66 -235 0
66 -195 0
-156 -240 247 0
156 -247 0
240 -247 0
-53 165 -243 0
53 -165 0
-165 243 0
-104 -112 399 0
-399 -133 400 0
-400 -206 248 0
112 -248 0
206 -248 0
133 -248 0
104 -248 0
-65 138 401 0
-401 -214 -215 0
65 -138 0
-138 214 0
-138 215 0
-59 -117 402 0
-402 -189 225 0
189 -225 0
117 -225 0
59 -225 0
-96 131 403 0
-403 152 404 0
-404 162 405 0
-405 175 406 0
-406 183 407 0
-407 203 205 0
96 -152 0
96 -203 0
96 -175 0
96 -131 0
96 -162 0
96 -205 0
96 -183 0
-50 -52 408 0
-408 -53 198 0
52 -198 0
53 -198 0
50 -198 0
-51 -242 0
51 242 0
219 -239 -249 0
-219 239 0
-219 249 0
-72 157 409 0
-409 241 247 0
72 -241 0
72 -157 0
72 -247 0
-111 166 -242 0
111 -166 0
-166 242 0
-86 -104 410 0
-410 -112 411 0
-411 -206 250 0
86 -250 0
206 -250 0
112 -250 0
104 -250 0
-132 142 -214 0
-142 214 0
132 -142 0
-68 -117 412 0
-412 224 -237 0
68 -224 0
117 -224 0
-224 237 0
-52 -71 413 0
-413 -120 234 0
71 -234 0
120 -234 0
52 -234 0
-147 -148 414 0
-414 174 -201 0
147 -174 0
148 -174 0
-174 201 0
-114 -164 0
114 164 0
-53 217 -249 0
53 -217 0
-217 249 0
-111 -220 231 0
111 -231 0
220 -231 0
-78 158 415 0
-415 168 416 0
-416 210 417 0
-417 222 418 0
-418 223 419 0
-419 232 420 0
-420 236 421 0
-421 244 422 0
-422 248 423 0
-423 250 251 0
78 -236 0
78 -168 0
78 -222 0
78 -232 0
78 -210 0
78 -223 0
78 -250 0
78 -244 0
78 -251 0
78 -158 0
78 -248 0
-52 -54 424 0
-424 -59 425 0
-425 -86 251 0
86 -251 0
54 -251 0
59 -251 0
52 -251 0
-59 -65 426 0
-426 140 -214 0
65 -140 0
-140 214 0
59 -140 0
-52 -68 427 0
-427 -117 226 0
68 -226 0
117 -226 0
52 -226 0
-71 -120 428 0
-428 -159 233 0
71 -233 0
120 -233 0
159 -233 0
-52 -147 429 0
-429 -148 170 0
147 -170 0
148 -170 0
52 -170 0
-115 -176 0
115 176 0
-238 252 430 0
-430 253 254 0
238 -252 0
238 -253 0
238 -254 0
-112 -177 255 0
112 -255 0
177 -255 0
256 257 431 0
-431 258 -259 0
-256 259 0
-257 259 0
-258 259 0
-132 -133 432 0
-432 -243 260 0
132 -260 0
133 -260 0
243 -260 0
-62 -177 0
62 177 0
52 59 433 0
-433 62 434 0
-434 65 -188 0
-52 188 0
-62 188 0
-59 188 0
-65 188 0
-74 -194 435 0
-435 -207 436 0
-436 -239 261 0
207 -261 0
194 -261 0
239 -261 0
74 -261 0
52 59 437 0
-437 62 438 0
-438 262 -263 0
-262 263 0
-59 263 0
-52 263 0
-62 263 0
-177 -207 264 0
177 -264 0
207 -264 0
-65 -207 0
65 207 0
-68 -177 439 0
-439 -207 265 0
207 -265 0
177 -265 0
68 -265 0
52 59 440 0
-440 62 441 0
-441 266 -267 0
-266 267 0
-59 267 0
-52 267 0
-62 267 0
-54 -132 442 0
-442 256 -268 0
132 -256 0
54 -256 0
-256 268 0
-132 -243 443 0
-443 -269 270 0
243 -270 0
132 -270 0
269 -270 0
-68 -239 0
68 239 0
-132 -133 444 0
-444 185 -230 0
132 -185 0
133 -185 0
-185 230 0
271 272 445 0
-445 273 -274 0
-271 274 0
-272 274 0
-273 274 0
-132 -240 446 0
-446 258 -268 0
240 -258 0
132 -258 0
-258 268 0
-54 -132 447 0
-447 -269 275 0
132 -275 0
54 -275 0
269 -275 0
-71 -194 0
71 194 0
-104 -136 0
104 136 0
-54 -132 448 0
-448 184 -276 0
132 -184 0
54 -184 0
-184 276 0
-110 -240 0
110 240 0
-106 -230 0
106 230 0
-181 -277 0
181 277 0
-237 -265 0
237 265 0
-132 186 449 0
-449 -230 -276 0
-186 230 0
132 -186 0
-186 276 0
-102 -268 0
102 268 0
-95 -278 0
95 278 0
-202 -263 0
202 263 0
-120 -279 0
120 279 0
-262 -280 0
262 280 0
-52 -206 0
52 206 0
-129 -281 0
129 281 0
-119 -282 0
119 282 0
-109 -208 0
109 208 0
-92 -276 0
92 276 0
-130 -283 0
130 283 0
-159 -284 0
159 284 0
-132 -133 450 0
-450 -240 257 0
132 -257 0
133 -257 0
240 -257 0
62 65 451 0
-451 68 452 0
-452 112 -285 0
-112 285 0
-65 285 0
-62 285 0
-68 285 0
-54 -133 0
54 133 0
-98 -286 0
98 286 0
-151 -287 0
151 287 0
-201 -255 0
201 255 0
-194 -207 453 0
-453 -220 454 0
-454 -239 280 0
207 -280 0
194 -280 0
239 -280 0
220 -280 0
-156 -194 455 0
-455 -220 456 0
-456 -239 288 0
239 -288 0
220 -288 0
194 -288 0
156 -288 0
-103 -269 0
103 269 0
-108 -179 0
108 179 0
-182 -289 0
182 289 0
-148 -274 0
148 274 0
52 59 457 0
-457 62 458 0
-458 -282 290 0
282 -290 0
-59 282 0
-52 282 0
-62 282 0
-54 -132 459 0
-459 271 -291 0
132 -271 0
54 -271 0
-271 291 0
-288 -292 0
288 292 0
-107 -249 0
107 249 0
-246 -285 0
246 285 0
-147 -267 0
147 267 0
-279 293 460 0
-460 294 295 0
279 -293 0
279 -294 0
279 -295 0
-132 -208 461 0
-461 273 -291 0
208 -273 0
132 -273 0
-273 291 0
-264 -296 0
264 296 0
-290 -297 0
290 297 0
-245 -298 0
245 298 0
-149 -261 0
149 261 0
-71 -177 462 0
-462 -207 463 0
-463 -239 284 0
177 -284 0
239 -284 0
207 -284 0
71 -284 0
-132 -179 464 0
-464 -286 295 0
179 -295 0
132 -295 0
286 -295 0
-194 -207 465 0
-465 -239 299 0
239 -299 0
207 -299 0
194 -299 0
52 59 466 0
-466 -289 467 0
-467 292 296 0
289 -292 0
-52 289 0
289 -296 0
-59 289 0
-74 -220 0
74 220 0
-105 -134 0
105 134 0
-196 -300 0
196 300 0
-132 -133 468 0
-468 -249 253 0
132 -253 0
133 -253 0
249 -253 0
-54 -132 469 0
-469 -286 293 0
132 -293 0
54 -293 0
286 -293 0
-132 -133 470 0
-470 -208 272 0
132 -272 0
133 -272 0
208 -272 0
260 270 471 0
-471 275 -281 0
-275 281 0
-260 281 0
-270 281 0
-49 -156 0
49 156 0
-89 -153 0
89 153 0
-161 -259 0
161 259 0
-54 -132 472 0
-472 252 -278 0
132 -252 0
54 -252 0
-252 278 0
-132 -133 473 0
-473 -179 294 0
132 -294 0
133 -294 0
179 -294 0
-49 -194 474 0
-474 -220 475 0
-475 -239 277 0
239 -277 0
220 -277 0
194 -277 0
49 -277 0
-112 -177 476 0
-476 -207 477 0
-477 -239 283 0
112 -283 0
207 -283 0
177 -283 0
239 -283 0
-59 -112 0
59 112 0
-48 -243 0
48 243 0
-266 -299 0
266 299 0
-132 -249 478 0
-478 254 -278 0
249 -254 0
132 -254 0
-254 278 0
-207 -239 297 0
207 -297 0
239 -297 0
-112 -177 479 0
-479 -207 300 0
177 -300 0
112 -300 0
207 -300 0
-51 -156 480 0
-480 -194 481 0
-481 -220 287 0
194 -287 0
156 -287 0
220 -287 0
51 -287 0
49 51 482 0
-482 71 483 0
-483 74 -298 0
-71 298 0
-49 298 0
-74 298 0
-51 298 0
-50 -132 0
50 132 0
-101 -291 0
101 291 0
-29 56 -301 0
29 -56 -301 0
29 56 301 0
-29 -56 301 0
-30 58 -302 0
30 -58 -302 0
30 58 302 0
-30 -58 302 0
-31 61 -303 0
31 -61 -303 0
31 61 303 0
-31 -61 303 0
-32 64 -304 0
32 -64 -304 0
32 64 304 0
-32 -64 304 0
-33 67 -305 0
33 -67 -305 0
33 67 305 0
-33 -67 305 0
-34 70 -306 0
34 -70 -306 0
34 70 306 0
-34 -70 306 0
-35 73 -307 0
35 -73 -307 0
35 73 307 0
-35 -73 307 0
-36 76 -308 0
36 -76 -308 0
36 76 308 0
-36 -76 308 0
-37 77 -309 0
37 -77 -309 0
37 77 309 0
-37 -77 309 0
-38 79 -310 0
38 -79 -310 0
38 79 310 0
-38 -79 310 0
-39 81 -311 0
39 -81 -311 0
39 81 311 0
-39 -81 311 0
-40 83 -312 0
40 -83 -312 0
40 83 312 0
-40 -83 312 0
-41 85 -313 0
41 -85 -313 0
41 85 313 0
-41 -85 313 0
-42 88 -314 0
42 -88 -314 0
42 88 314 0
-42 -88 314 0
-43 91 -315 0
43 -91 -315 0
43 91 315 0
-43 -91 315 0
-44 94 -316 0
44 -94 -316 0
44 94 316 0
-44 -94 316 0
-45 97 -317 0
45 -97 -317 0
45 97 317 0
-45 -97 317 0
-46 100 -318 0
46 -100 -318 0
46 100 318 0
-46 -100 318 0
47 -301 484 0
-484 -302 485 0
-485 -303 486 0
-486 -304 487 0
-487 -305 488 0
-488 -306 489 0
-489 -307 490 0
-490 -308 491 0
-491 -309 492 0
-492 -310 493 0
-493 -311 494 0
-494 -312 495 0
-495 -313 496 0
-496 -314 497 0
-497 -315 498 0
-498 -316 499 0
-499 -317 -318 0
-47 301 0
-47 302 0
-47 303 0
-47 304 0
-47 305 0
-47 306 0
-47 307 0
-47 308 0
-47 309 0
-47 310 0
-47 311 0
-47 312 0
-47 313 0
-47 314 0
-47 315 0
-47 316 0
-47 317 0
-47 318 0